c --- [ banner ] -------------------------------------------------------------
c 
c CaDiCaL SAT Solver
c Copyright (c) 2016-2023 A. Biere, M. Fleury, N. Froleyks, K. Fazekas, F. Pollitt
c 
c Version 1.9.5
c g++ (Ubuntu 11.4.0-1ubuntu1~22.04) 11.4.0 -Wall -Wextra -O3 -DNDEBUG -static
c Thu Mar 7 06:16:21 CET 2024 Linux pc101447 6.5.0-17-generic x86_64
c 
c --- [ limit ] --------------------------------------------------------------
c 
c setting time limit to 3600 seconds real time (due to '-t 3600')
c 
c --- [ parsing input ] ------------------------------------------------------
c 
c reading DIMACS file from '/home/oliveras/SAT-comp-2023//c40838cb3ed9babe51dc41185e70a3dd-hash_table_find_safety_size_11.cnf'
c opening file to read '/home/oliveras/SAT-comp-2023//c40838cb3ed9babe51dc41185e70a3dd-hash_table_find_safety_size_11.cnf'
c found 'p cnf 5277644 24486982' header
c parsed 24486982 clauses in 10.10 seconds process time
c 
c --- [ options ] ------------------------------------------------------------
c 
c   --seed=1                       (different from default '0')
c 
c --- [ solving ] ------------------------------------------------------------
c 
c time measured in process time since initialization
c 
c  seconds    reductions  redundant   irredundant
c          MB     restarts       trail          variables
c            level   conflicts       glue             remaining
c 
c * 10.10 2903  0 0   0    0    0  0% 0 20971987 4706197 89%
c { 10.32 2925  0 0   0    0    0  0% 0 20971987 4706197 89%
c } 10.42 2930 396 0   0 1016    5 12% 137 20971987 4706197 89%
c [ 10.42 2930  0 0   0 1016    5  0% 0 20971987 4706197 89%
c - 12.38 2929  0 1   0 1016    5  0% 0 20728910 4706197 89%
c O 12.40 2929  0 1   0 1017    5 11% 0 20728910 4706197 89%
c i 12.40 2929  0 1   0 1017    5 11% 0 20728910 4706179 89%
c i 12.41 2929  0 1   0 1018    5 11% 0 20728910 4706114 89%
c i 12.41 2929  0 1   0 1019    5 11% 0 20728910 4706113 89%
c i 12.42 2929  0 1   0 1020    5 11% 0 20728910 4675451 89%
c i 12.44 2929  0 1   0 1021    5 11% 0 20728910 4675447 89%
c i 12.46 2929  0 1   0 1022    5 11% 0 20728910 4675379 89%
c i 13.57 2952 46 1   0 1030   10 31% 5 20728910 4675360 89%
c i 13.60 2952 38 1   0 1033   12 27% 4 20728910 4640738 88%
c i 13.60 2952 32 1   0 1037   15 24% 4 20728910 4640675 88%
c i 13.61 2952 28 1   0 1041   18 22% 4 20728910 4640269 88%
c i 13.61 2952 26 1   0 1043   19 22% 3 20728910 4640205 88%
c i 13.74 2952 18 1   0 1059   31 18% 3 20728910 4637850 88%
c - 61.54 3676 255 2   1 3005 1157 37% 58 19194765 4637850 88%
c ] 61.59 3676 254 2   1 3017 1165 37% 58 19194765 4637850 88%
c 
c  seconds     reductions  redundant     irredundant
c          MB      restarts       trail            variables
c             level   conflicts        glue              remaining
c 
c { 61.59 3676 396 2   1 3017 1165 14% 137 19194765 4637850 88%
c F 61.64 3676 357 2   1 3018 1166 14% 123 19194765 4637850 88%
c i 61.83 3676 211 2   1 3025 1170 14% 78 19194765 4637849 88%
c i 61.86 3676 199 2   1 3026 1170 14% 73 19194765 4637846 88%
c i 61.89 3676 189 2   1 3027 1170 14% 69 19194765 4637841 88%
c i 61.92 3676 179 2   1 3028 1170 14% 66 19194765 4637839 88%
c i 61.95 3676 157 2   1 3031 1172 14% 57 19194765 4637837 88%
c i 61.96 3676 151 2   1 3032 1172 14% 54 19194765 4637835 88%
c i 61.97 3676 145 2   1 3033 1172 14% 52 19194765 4637833 88%
c i 61.98 3676 140 2   1 3034 1172 14% 50 19194765 4637831 88%
c i 61.99 3676 135 2   1 3035 1172 14% 48 19194765 4637829 88%
c i 61.99 3676 131 2   1 3036 1172 14% 46 19194765 4637827 88%
c i 62.00 3676 126 2   1 3037 1172 14% 45 19194765 4637825 88%
c i 62.01 3676 123 2   1 3038 1172 14% 43 19194765 4637823 88%
c i 62.02 3676 119 2   1 3039 1172 14% 42 19194765 4637821 88%
c i 62.03 3676 115 2   1 3040 1172 14% 40 19194765 4637819 88%
c i 62.03 3676 112 2   1 3041 1172 14% 39 19194765 4637817 88%
c i 62.04 3676 109 2   1 3042 1172 14% 38 19194765 4637815 88%
c i 62.05 3676 106 2   1 3043 1172 14% 37 19194765 4637813 88%
c i 62.06 3676 104 2   1 3044 1172 14% 36 19194765 4637811 88%
c 
c  seconds     reductions  redundant    irredundant
c          MB      restarts       trail           variables
c             level   conflicts       glue              remaining
c 
c i 62.06 3676 101 2   1 3045 1172 14% 35 19194765 4637809 88%
c i 62.07 3676 99 2   1 3046 1172 14% 34 19194765 4637807 88%
c i 65.11 3710 276 2   1 3632 1529 22% 7 19194765 4637785 88%
c i 67.28 3710 278 2   7 3659 1552 22% 8 19194765 4637780 88%
c i 67.48 3710 277 2   9 3665 1557 22% 8 19194765 4637748 88%
c i 75.24 3710 283 2  25 3731 1600 23% 8 19194765 4636119 88%
c i 78.63 3710 270 2  26 3967 1742 27% 7 19194765 4636116 88%
c i 78.95 3710 270 2  27 3982 1749 27% 8 19194765 4636107 88%
c i 79.22 3710 270 2  29 3991 1754 27% 9 19194765 4636104 88%
c i 79.22 3710 269 2  31 4009 1763 27% 10 19194765 4636095 88%
c i 79.22 3710 269 2  32 4016 1768 27% 10 19194765 4636092 88%
c i 79.22 3710 267 2  33 4034 1775 27% 11 19194765 4636077 88%
c i 79.22 3710 267 2  34 4042 1780 27% 11 19194765 4636073 88%
c i 79.22 3710 265 2  35 4059 1786 27% 12 19194765 4636059 88%
c i 79.22 3710 265 2  36 4066 1790 27% 12 19194765 4636056 88%
c i 79.22 3710 263 2  37 4092 1799 27% 14 19194765 4636044 88%
c i 79.22 3710 263 2  38 4095 1799 27% 14 19194765 4636037 88%
c i 80.04 3710 262 2  42 4109 1807 27% 14 19194765 4636026 88%
c i 80.34 3710 261 2  43 4112 1808 27% 14 19194765 4636024 88%
c i 81.13 3710 244 2  47 4240 1868 27% 15 19194765 4635897 88%
c 
c  seconds     reductions  redundant    irredundant
c          MB      restarts       trail           variables
c             level   conflicts       glue              remaining
c 
c i 81.29 3710 239 2  47 4270 1889 27% 14 19194765 4635890 88%
c s 90.30 3499 239 2  47 4312 1902 28% 14 19179778 4635872 88%
c v 110.07 3711 239 2  47 4312 1902 28% 14 19179714 4635872 88%
c w 114.50 3711 239 2  47 4312 1902 28% 14 19179714 4635872 88%
c t 115.57 3711 239 2  47 4312 1902 28% 14 19179693 4635871 88%
c e 164.97 3483 239 2  47 4312  224 28% 14 2234453 271061  5%
c s 166.18 3483 239 2  47 4312  224 28% 14 2234453 271061  5%
c e 169.35 3406 239 2  47 4312  224 28% 14 2234448 271059  5%
c i 169.95 3619 312 2  51 4496  337 26% 14 2234448 271057  5%
c i 170.05 3619 299 2  51 4681  500 24% 13 2234448 271055  5%
c i 170.28 3619 297 2  56 4713  530 24% 13 2234448 123202  2%
c i 170.38 3619 296 2  61 4736  546 24% 13 2234448 123201  2%
c i 170.42 3619 294 2  64 4760  560 24% 13 2234448 123092  2%
c i 170.44 3619 291 2  64 4803  588 23% 13 2234448 123090  2%
c d 171.12 3689 278 2  64 5000  675 22% 12 1244727 122823  2%
c d 171.56 3693 278 2  64 5000  675 22% 12 1151046 76012  1%
c 3 172.09 3410 278 2  64 5000 59331 22% 12 1151046 76012  1%
c 2 172.75 3623 278 2  64 5000 59330 22% 12 1108387 74666  1%
c p 174.07 3623 278 2  64 5000 473243 22% 12 1108387 61878  1%
c d 174.58 3693 278 2  64 5000 182344 22% 12 639766 61723  1%
c 
c  seconds      reductions   redundant    irredundant
c           MB      restarts         trail        variables
c              level   conflicts         glue          remaining
c 
c d 175.08 3623 278 2  64 5000 181196 22% 12 625266 54622  1%
c i 175.13 3623 270 2  64 5072 181253 22% 12 625266 54620  1%
c i 175.13 3623 270 2  64 5077 181255 22% 12 625266 54619  1%
c i 175.15 3623 268 2  64 5099 181266 22% 12 625266 54616  1%
c i 175.15 3623 267 2  64 5106 181270 22% 12 625266 54615  1%
c i 175.15 3623 267 2  64 5109 181272 21% 12 625266 54614  1%
c - 176.05 3534 259 3 107 5960 43190 18% 13 625217 54614  1%
c # 176.11 3534 255 3 121 6019 43207 17% 14 625217 54614  1%
c } 176.39 3534 206 3 371 7018 43250 15% 31 625217 54614  1%
c [ 176.39 3534 254 3 371 7018 43250 37% 58 625217 54614  1%
c - 178.62 2748 207 4 372 8115 43521 21% 50 625217 54614  1%
c I 179.79 2748 152 4 373 10020 44369 19% 43 625217 54614  1%
c - 180.05 2748 137 5 373 10810 44627 20% 42 625217 54614  1%
c i 180.90 2748 123 5 375 12748 45436 21% 34 625217 54560  1%
c i 180.91 2748 122 5 375 12761 45440 21% 34 625217 54558  1%
c i 180.98 2748 120 5 375 12906 45474 21% 33 625216 54557  1%
c i 181.00 2748 120 5 375 12951 45482 20% 33 625216 54443  1%
c ] 181.01 2748 119 5 375 12984 45503 20% 33 625216 44275  1%
c 0 181.01 2748 119 5 375 12984 45503 20% 33 625216 44275  1%
c 
c --- [ result ] -------------------------------------------------------------
c 
s UNSATISFIABLE
c 
c --- [ run-time profiling ] -------------------------------------------------
c 
c process time taken by individual solving procedures
c (percentage relative to process time for solving)
c 
c        87.37   51.12% simplify
c        83.55   48.88% search
c        55.79   32.64% stable
c        51.47   30.11% elim
c        27.53   16.11% unstable
c        21.75   12.73% vivify
c        10.10    5.91% parse
c         8.48    4.96% subsume
c         1.32    0.77% probe
c         0.79    0.46% ternary
c         0.22    0.13% lucky
c   =================================
c       170.91   94.42% solve
c 
c last line shows process time for solving
c (percentage relative to total process time)
c 
c --- [ statistics ] ---------------------------------------------------------
c 
c chronological:              4691        36.13 %  of conflicts
c conflicts:                 12984        75.97    per second
c decisions:                134164       784.98    per second
c eliminated:              4364226        82.69 %  of all variables
c fixed:                    805571        15.26 %  of all variables
c learned:                    9834        75.74 %  per conflict
c learned_lits:            2041843       100.00 %  learned literals
c minimized:                     0         0.00 %  learned literals
c shrunken:                 380949        18.66 %  learned literals
c minishrunken:             183756         9.00 %  learned literals
c otfs:                       1927        14.84 %  of conflict
c propagations:          322928155         1.89 M  per second
c reduced:                     371         2.86 %  per conflict
c rephased:                      4      3246.00    interval
c restarts:                    375        34.62    interval
c stabilizing:                   2        61.29 %  of conflicts
c substituted:               54334         1.03 %  of all variables
c subsumed:                 363666         1.21 %  of all clauses
c strengthened:              37018         0.12 %  of all clauses
c ternary:                   58664         0.51 %  of resolved
c trail reuses:                  0         0.00 %  of incremental calls
c vivified:                    129         0.00 %  of all clauses
c weakened:               19099752         3.25    average size
c 
c seconds are measured in process time for solving
c 
c --- [ resources ] ----------------------------------------------------------
c 
c total process time since initialization:       181.01    seconds
c total real time since initialization:          181.04    seconds
c maximum resident set size of process:         4620.81    MB
c 
c --- [ shutting down ] ------------------------------------------------------
c 
c exit 20
